language Essence 1.3

$ bivincular mixed mesh
letting length be 4

$ mesh_avoidance = permutation + mesh pieces + bivincular indeces

letting mixed_avoidance be {( sequence(1,3,2), relation( (2,3) ), {1}, {} )}
